biology/DIMACS/bio-grid-mouse.txt
p edge 1456 3272
e 1 2
e 1 3
e 1 4
e 1 5
e 1 6
e 1 7
e 1 8
e 1 9
e 1 10
e 1 11
e 1 2
e 1 12
e 1 13
e 1 14
e 1 15
e 1 16
e 1 17
e 1 18
e 1 19
e 1 20
e 1 21
e 1 3
e 1 22
e 1 23
e 1 24
e 1 25
e 1 26
e 1 27
e 1 28
e 1 4
e 1 5
e 1 6
e 1 7
e 1 8
e 1 9
e 1 10
e 1 11
e 1 12
e 1 13
e 2 29
e 1 14
e 2 34
e 1 15
e 1 16
e 1 17
e 2 65
e 1 18
e 1 19
e 1 20
e 1 21
e 1 22
e 1 23
e 1 24
e 3 34
e 1 25
e 1 26
e 1 27
e 3 65
e 1 28
e 2 29
e 5 29
e 7 29
e 9 29
e 10 29
e 1 305
e 2 34
e 3 34
e 5 34
e 7 34
e 8 34
e 10 34
e 4 65
e 5 29
e 5 34
e 5 65
e 6 65
e 7 29
e 7 34
e 2 65
e 3 65
e 4 65
e 5 65
e 6 65
e 8 65
e 9 65
e 8 34
e 8 65
e 9 29
e 9 65
e 10 29
e 10 34
e 11 29
e 12 29
e 12 34
e 2 148
e 2 155
e 2 163
e 12 65
e 2 194
e 13 34
e 13 65
e 14 34
e 14 65
e 15 29
e 15 65
e 2 148
e 4 148
e 6 148
e 8 148
e 9 148
e 10 148
e 16 29
e 2 155
e 4 155
e 5 155
e 6 155
e 8 155
e 9 155
e 10 155
e 2 163
e 6 163
e 7 163
e 8 163
e 9 163
e 10 163
e 18 29
e 18 34
e 19 29
e 19 64
e 19 65
e 2 194
e 20 34
e 20 65
e 21 34
e 21 65
e 22 65
e 27 29
e 27 34
e 28 29
e 28 34
e 11 29
e 12 29
e 15 29
e 16 29
e 18 29
e 19 29
e 27 29
e 28 29
e 29 30
e 29 31
e 29 32
e 29 33
e 29 30
e 30 34
e 29 31
e 1 305
e 29 32
e 4 148
e 4 155
e 29 33
e 12 34
e 13 34
e 14 34
e 18 34
e 20 34
e 21 34
e 27 34
e 28 34
e 30 34
e 34 35
e 34 36
e 34 37
e 34 38
e 34 39
e 34 40
e 34 41
e 34 42
e 34 43
e 34 44
e 34 45
e 34 46
e 34 47
e 34 48
e 34 49
e 34 50
e 34 51
e 34 52
e 34 53
e 34 54
e 34 55
e 34 56
e 34 57
e 34 58
e 34 59
e 34 60
e 34 61
e 34 62
e 34 63
e 34 35
e 34 36
e 36 65
e 34 37
e 34 38
e 34 39
e 34 40
e 40 65
e 34 41
e 34 42
e 5 155
e 34 43
e 34 44
e 44 65
e 34 45
e 45 65
e 34 46
e 34 47
e 34 48
e 48 65
e 34 49
e 49 65
e 34 50
e 34 51
e 34 52
e 6 148
e 6 155
e 6 163
e 52 65
e 34 53
e 34 54
e 54 65
e 34 55
e 34 56
e 56 65
e 34 57
e 57 65
e 34 58
e 34 59
e 59 65
e 34 60
e 60 65
e 34 61
e 34 62
e 7 163
e 34 63
e 19 64
e 12 65
e 13 65
e 14 65
e 15 65
e 19 65
e 20 65
e 21 65
e 22 65
e 36 65
e 40 65
e 44 65
e 45 65
e 48 65
e 49 65
e 52 65
e 54 65
e 56 65
e 57 65
e 59 65
e 60 65
e 65 66
e 65 67
e 65 68
e 65 69
e 65 70
e 65 71
e 65 72
e 65 73
e 65 74
e 65 75
e 65 76
e 65 77
e 65 78
e 65 79
e 65 80
e 65 81
e 65 82
e 65 83
e 65 84
e 65 85
e 65 86
e 65 87
e 65 88
e 65 89
e 65 90
e 65 91
e 65 92
e 65 93
e 65 94
e 65 95
e 65 96
e 65 97
e 65 98
e 65 99
e 65 100
e 65 66
e 65 67
e 65 68
e 65 69
e 7 919
e 65 70
e 65 71
e 8 148
e 8 155
e 8 163
e 65 72
e 65 73
e 65 74
e 65 75
e 65 76
e 65 77
e 65 78
e 65 79
e 65 80
e 65 81
e 9 148
e 9 155
e 9 163
e 65 82
e 65 83
e 65 84
e 65 85
e 65 86
e 65 87
e 65 88
e 65 89
e 65 90
e 65 91
e 10 148
e 10 155
e 10 163
e 65 92
e 7 919
e 65 93
e 65 94
e 65 95
e 65 96
e 65 97
e 65 98
e 65 99
e 65 100
e 65 101
e 11 163
e 65 102
e 65 103
e 65 104
e 65 105
e 65 106
e 11 581
e 65 107
e 65 108
e 65 109
e 65 110
e 65 111
e 12 155
e 12 163
e 65 112
e 65 113
e 65 114
e 65 115
e 65 116
e 7 1161
e 65 117
e 65 118
e 65 119
e 65 120
e 65 121
e 13 148
e 65 122
e 65 123
e 65 124
e 65 125
e 65 126
e 65 127
e 65 128
e 65 129
e 10 1291
e 10 1292
e 65 130
e 10 1298
e 65 131
e 14 148
e 14 155
e 14 163
e 65 132
e 65 133
e 65 134
e 65 135
e 65 136
e 65 137
e 65 138
e 14 781
e 65 139
e 65 140
e 65 141
e 15 155
e 65 142
e 65 143
e 65 144
e 65 145
e 65 146
e 65 147
e 13 148
e 14 148
e 20 148
e 21 148
e 30 148
e 39 148
e 40 148
e 52 148
e 56 148
e 61 148
e 66 148
e 67 148
e 68 148
e 74 148
e 85 148
e 93 148
e 97 148
e 12 155
e 14 155
e 15 155
e 20 155
e 21 155
e 30 155
e 45 155
e 52 155
e 66 155
e 68 155
e 73 155
e 74 155
e 76 155
e 87 155
e 91 155
e 94 155
e 97 155
e 17 163
e 11 163
e 12 163
e 14 163
e 17 163
e 18 163
e 22 163
e 23 163
e 24 163
e 25 163
e 28 163
e 31 163
e 43 163
e 46 163
e 53 163
e 54 163
e 56 163
e 57 163
e 59 163
e 61 163
e 63 163
e 85 163
e 88 163
e 89 163
e 90 163
e 18 163
e 20 148
e 20 155
e 21 194
e 23 194
e 27 194
e 28 194
e 30 194
e 36 194
e 39 194
e 44 194
e 53 194
e 55 194
e 56 194
e 66 194
e 21 148
e 21 155
e 21 194
e 65 206
e 65 211
e 22 163
e 23 163
e 23 194
e 24 163
e 25 163
e 26 306
e 27 194
e 47 264
e 27 810
e 28 163
e 28 194
e 29 305
e 30 148
e 30 155
e 30 194
e 31 163
e 29 305
e 26 306
e 36 194
e 39 148
e 39 194
e 40 148
e 43 163
e 44 194
e 45 155
e 46 163
e 47 264
e 52 148
e 52 155
e 53 163
e 53 194
e 54 163
e 55 194
e 56 148
e 56 163
e 56 194
e 57 163
e 11 581
e 59 163
e 61 148
e 61 163
e 61 921
e 7 1161
e 63 163
e 65 101
e 65 102
e 65 103
e 65 104
e 65 105
e 65 106
e 65 107
e 65 108
e 65 109
e 65 110
e 65 111
e 65 112
e 65 113
e 65 114
e 65 115
e 65 116
e 65 117
e 65 118
e 65 119
e 65 120
e 65 121
e 65 122
e 65 123
e 65 124
e 65 125
e 65 126
e 65 127
e 65 128
e 65 129
e 65 130
e 65 131
e 65 132
e 65 133
e 65 134
e 65 135
e 65 136
e 65 137
e 65 138
e 65 139
e 65 140
e 65 141
e 65 142
e 65 143
e 65 144
e 65 145
e 65 146
e 65 147
e 65 206
e 65 211
e 66 148
e 66 155
e 66 194
e 67 148
e 68 148
e 68 155
e 73 155
e 74 148
e 74 155
e 76 155
e 14 781
e 27 810
e 85 148
e 85 163
e 87 155
e 88 163
e 89 163
e 90 163
e 91 155
e 10 1291
e 10 1292
e 10 1298
e 61 921
e 93 148
e 94 155
e 97 148
e 97 155
e 101 148
e 101 155
e 101 163
e 105 148
e 105 155
e 106 155
e 107 155
e 107 163
e 107 927
e 111 155
e 82 1110
e 82 1112
e 114 148
e 115 148
e 115 155
e 116 163
e 55 1172
e 27 1173
e 29 1173
e 34 1173
e 55 1173
e 120 155
e 125 148
e 125 155
e 125 163
e 127 155
e 94 1269
e 56 1270
e 128 155
e 129 155
e 28 1302
e 131 163
e 132 163
e 59 1330
e 134 148
e 140 155
e 140 163
e 141 148
e 142 148
e 143 155
e 144 163
e 145 163
e 146 163
e 146 194
e 147 155
e 147 163
e 147 194
e 147 273
e 147 274
e 101 148
e 105 148
e 114 148
e 115 148
e 125 148
e 134 148
e 141 148
e 142 148
e 148 149
e 148 150
e 148 151
e 148 152
e 148 153
e 148 154
e 148 206
e 148 207
e 148 149
e 149 194
e 148 150
e 148 151
e 151 194
e 148 152
e 148 153
e 148 154
e 101 155
e 105 155
e 106 155
e 107 155
e 111 155
e 115 155
e 120 155
e 125 155
e 127 155
e 128 155
e 129 155
e 140 155
e 143 155
e 147 155
e 155 156
e 155 157
e 155 158
e 155 159
e 155 160
e 155 161
e 155 162
e 155 206
e 155 156
e 155 157
e 155 158
e 155 159
e 155 160
e 155 161
e 155 162
e 162 163
e 162 194
e 101 163
e 107 163
e 116 163
e 125 163
e 131 163
e 132 163
e 140 163
e 144 163
e 145 163
e 146 163
e 147 163
e 162 163
e 163 164
e 163 165
e 163 166
e 163 167
e 163 168
e 163 169
e 163 170
e 163 171
e 163 172
e 163 173
e 163 174
e 163 175
e 163 176
e 163 177
e 163 178
e 163 179
e 163 180
e 163 181
e 163 182
e 163 183
e 163 184
e 163 185
e 163 186
e 163 187
e 163 188
e 163 189
e 163 190
e 163 191
e 163 192
e 163 193
e 163 207
e 163 208
e 163 164
e 163 165
e 163 166
e 163 167
e 163 168
e 163 169
e 163 170
e 170 970
e 170 971
e 163 171
e 163 172
e 163 173
e 163 174
e 174 194
e 163 175
e 163 176
e 176 194
e 163 177
e 163 178
e 163 179
e 179 194
e 163 180
e 163 181
e 163 182
e 182 194
e 163 183
e 183 194
e 163 184
e 163 185
e 163 186
e 163 187
e 163 188
e 163 189
e 163 190
e 163 191
e 163 192
e 163 193
e 146 194
e 147 194
e 149 194
e 151 194
e 162 194
e 174 194
e 176 194
e 179 194
e 182 194
e 183 194
e 194 195
e 194 196
e 194 197
e 194 198
e 194 199
e 194 200
e 194 201
e 194 202
e 194 203
e 194 204
e 194 205
e 194 195
e 194 196
e 194 197
e 194 198
e 194 199
e 194 200
e 200 755
e 194 201
e 194 202
e 194 203
e 194 204
e 194 205
e 148 206
e 155 206
e 148 207
e 163 207
e 163 208
e 209 210
e 209 210
e 212 213
e 212 907
e 212 213
e 214 215
e 214 216
e 214 215
e 215 216
e 215 217
e 214 216
e 215 216
e 215 217
e 217 218
e 217 218
e 219 220
e 219 221
e 219 222
e 219 223
e 219 224
e 219 340
e 219 864
e 219 220
e 219 221
e 219 222
e 219 223
e 219 224
e 224 797
e 225 226
e 225 227
e 225 228
e 225 226
e 225 227
e 225 228
e 228 229
e 228 229
e 230 231
e 230 325
e 230 231
e 232 233
e 232 234
e 232 235
e 232 236
e 232 237
e 232 238
e 232 233
e 232 234
e 234 531
e 234 536
e 234 540
e 232 235
e 232 236
e 232 237
e 232 238
e 239 240
e 239 240
e 240 296
e 240 307
e 240 308
e 240 408
e 240 624
e 240 755
e 241 242
e 241 243
e 241 244
e 241 245
e 241 246
e 241 247
e 241 248
e 241 249
e 241 250
e 241 251
e 241 252
e 241 253
e 241 254
e 241 255
e 241 256
e 241 257
e 241 258
e 241 259
e 241 260
e 241 242
e 241 243
e 241 244
e 241 245
e 245 266
e 245 302
e 245 502
e 245 696
e 241 246
e 241 247
e 241 248
e 241 249
e 241 250
e 241 251
e 241 252
e 241 253
e 241 254
e 241 255
e 241 256
e 241 257
e 241 258
e 241 259
e 241 260
e 261 262
e 261 263
e 261 270
e 27 1173
e 261 262
e 261 263
e 264 265
e 264 275
e 264 276
e 264 279
e 264 284
e 264 265
e 245 266
e 266 267
e 266 267
e 267 305
e 268 269
e 268 269
e 261 270
e 270 763
e 271 272
e 271 272
e 28 1302
e 147 273
e 147 274
e 264 275
e 264 276
e 277 278
e 277 297
e 277 278
e 264 279
e 280 281
e 280 281
e 29 1173
e 282 283
e 282 295
e 282 671
e 282 283
e 264 284
e 284 285
e 284 286
e 284 285
e 284 286
e 286 466
e 286 608
e 287 288
e 287 883
e 287 288
e 289 290
e 289 309
e 289 316
e 289 318
e 289 320
e 289 324
e 289 326
e 289 290
e 291 292
e 291 315
e 291 317
e 291 319
e 291 292
e 293 294
e 293 294
e 294 990
e 282 295
e 240 296
e 277 297
e 298 299
e 298 671
e 298 299
e 299 300
e 299 301
e 299 836
e 299 884
e 299 904
e 299 989
e 299 300
e 300 301
e 300 745
e 300 784
e 300 836
e 299 301
e 300 301
e 301 703
e 245 302
e 302 620
e 303 304
e 303 431
e 303 464
e 303 304
e 267 305
e 305 327
e 305 328
e 305 329
e 240 307
e 240 308
e 289 309
e 309 515
e 309 611
e 309 937
e 310 311
e 310 311
e 312 313
e 312 314
e 312 313
e 312 314
e 291 315
e 315 642
e 315 765
e 315 767
e 315 988
e 289 316
e 291 317
e 317 642
e 289 318
e 291 319
e 319 326
e 319 642
e 289 320
e 321 322
e 321 323
e 321 322
e 322 323
e 322 991
e 322 993
e 321 323
e 322 323
e 289 324
e 324 515
e 324 763
e 230 325
e 289 326
e 319 326
e 305 327
e 305 328
e 305 329
e 330 331
e 330 331
e 331 599
e 331 939
e 34 1173
e 332 333
e 332 333
e 333 337
e 333 674
e 334 335
e 334 336
e 334 337
e 334 338
e 334 339
e 334 335
e 334 336
e 333 337
e 334 337
e 334 338
e 334 339
e 219 340
e 340 341
e 340 342
e 340 343
e 340 344
e 340 345
e 340 428
e 340 341
e 340 342
e 340 343
e 340 344
e 340 345
e 346 347
e 346 348
e 346 349
e 346 350
e 346 347
e 346 348
e 346 349
e 346 350
e 351 352
e 351 353
e 351 354
e 351 355
e 351 356
e 351 357
e 351 352
e 352 353
e 352 354
e 352 355
e 352 356
e 352 357
e 352 785
e 351 353
e 352 353
e 353 354
e 353 355
e 353 356
e 353 357
e 353 785
e 351 354
e 352 354
e 353 354
e 354 355
e 354 356
e 354 357
e 354 785
e 351 355
e 352 355
e 353 355
e 354 355
e 355 356
e 355 357
e 355 741
e 351 356
e 352 356
e 353 356
e 354 356
e 355 356
e 356 357
e 351 357
e 352 357
e 353 357
e 354 357
e 355 357
e 356 357
e 358 359
e 358 360
e 358 361
e 358 362
e 358 359
e 358 360
e 358 361
e 358 362
e 363 364
e 363 365
e 363 366
e 363 367
e 363 368
e 363 369
e 363 370
e 363 371
e 363 372
e 363 373
e 363 374
e 363 375
e 363 376
e 363 377
e 363 379
e 363 505
e 363 364
e 364 367
e 364 369
e 363 365
e 365 366
e 365 367
e 365 368
e 365 369
e 365 370
e 365 371
e 365 373
e 363 366
e 365 366
e 366 370
e 363 367
e 364 367
e 365 367
e 367 370
e 363 368
e 365 368
e 368 370
e 363 369
e 364 369
e 365 369
e 369 370
e 363 370
e 365 370
e 366 370
e 367 370
e 368 370
e 369 370
e 370 371
e 370 374
e 370 375
e 370 376
e 370 377
e 370 378
e 363 371
e 365 371
e 370 371
e 371 562
e 363 372
e 363 373
e 365 373
e 363 374
e 370 374
e 374 505
e 363 375
e 370 375
e 375 505
e 363 376
e 370 376
e 363 377
e 370 377
e 370 378
e 363 379
e 379 505
e 380 381
e 380 381
e 382 383
e 382 383
e 384 385
e 384 385
e 385 892
e 386 387
e 386 388
e 386 387
e 386 388
e 389 390
e 389 391
e 389 390
e 389 391
e 392 393
e 392 393
e 394 395
e 394 396
e 394 395
e 394 396
e 397 398
e 397 398
e 399 400
e 399 910
e 399 911
e 399 400
e 401 402
e 401 403
e 401 402
e 401 403
e 404 405
e 404 405
e 406 407
e 406 407
e 240 408
e 409 410
e 409 411
e 409 412
e 409 413
e 409 414
e 409 415
e 409 410
e 409 411
e 409 412
e 412 720
e 409 413
e 409 414
e 409 415
e 416 417
e 416 418
e 416 417
e 417 898
e 416 418
e 418 898
e 419 420
e 419 420
e 422 423
e 422 423
e 423 531
e 423 536
e 423 540
e 424 425
e 424 425
e 425 426
e 425 807
e 425 426
e 427 428
e 340 428
e 427 428
e 428 586
e 428 589
e 428 590
e 428 591
e 428 598
e 428 602
e 428 603
e 429 430
e 429 430
e 303 431
e 431 432
e 431 620
e 431 621
e 431 432
e 433 434
e 433 434
e 434 435
e 434 436
e 434 435
e 435 507
e 435 518
e 434 436
e 436 481
e 436 599
e 436 644
e 437 438
e 437 439
e 437 991
e 437 438
e 438 440
e 438 441
e 437 439
e 439 440
e 439 441
e 438 440
e 439 440
e 438 441
e 439 441
e 442 443
e 442 443
e 443 493
e 443 494
e 444 445
e 444 446
e 444 447
e 444 448
e 444 451
e 444 452
e 444 453
e 444 454
e 444 455
e 444 445
e 445 449
e 444 446
e 444 447
e 447 449
e 444 448
e 448 449
e 445 449
e 447 449
e 448 449
e 449 450
e 449 451
e 449 452
e 449 453
e 449 454
e 449 455
e 449 450
e 444 451
e 449 451
e 444 452
e 449 452
e 444 453
e 449 453
e 444 454
e 449 454
e 444 455
e 449 455
e 456 457
e 456 457
e 457 458
e 457 459
e 457 498
e 457 707
e 457 458
e 457 459
e 459 515
e 459 763
e 460 461
e 460 462
e 460 483
e 460 461
e 461 556
e 460 462
e 463 464
e 303 464
e 463 464
e 464 481
e 465 466
e 465 467
e 465 468
e 465 469
e 465 474
e 465 498
e 465 503
e 465 505
e 465 707
e 465 901
e 465 966
e 286 466
e 465 466
e 466 490
e 465 467
e 467 506
e 467 840
e 465 468
e 465 469
e 469 876
e 469 958
e 470 471
e 470 472
e 470 473
e 470 477
e 470 492
e 470 471
e 470 472
e 470 473
e 465 474
e 475 476
e 475 477
e 475 823
e 475 476
e 476 478
e 476 479
e 470 477
e 475 477
e 477 478
e 477 479
e 477 498
e 477 763
e 476 478
e 477 478
e 478 479
e 478 962
e 478 963
e 478 964
e 478 965
e 476 479
e 477 479
e 478 479
e 479 618
e 479 962
e 480 481
e 436 481
e 464 481
e 480 481
e 481 482
e 481 482
e 460 483
e 484 485
e 484 485
e 485 486
e 485 487
e 485 488
e 485 486
e 485 487
e 485 488
e 488 489
e 488 489
e 466 490
e 490 491
e 490 492
e 490 498
e 490 491
e 470 492
e 490 492
e 443 493
e 443 494
e 494 495
e 494 495
e 496 497
e 496 498
e 496 503
e 496 497
e 497 498
e 457 498
e 465 498
e 477 498
e 490 498
e 496 498
e 497 498
e 498 520
e 499 500
e 499 501
e 499 500
e 499 501
e 245 502
e 465 503
e 496 503
e 503 504
e 503 505
e 503 504
e 504 966
e 504 967
e 363 505
e 374 505
e 375 505
e 379 505
e 465 505
e 503 505
e 505 830
e 467 506
e 506 556
e 506 558
e 435 507
e 508 509
e 508 509
e 510 511
e 510 511
e 512 513
e 512 514
e 512 513
e 512 514
e 309 515
e 324 515
e 459 515
e 515 516
e 515 516
e 516 767
e 517 518
e 517 519
e 435 518
e 517 518
e 517 519
e 498 520
e 521 522
e 521 523
e 521 524
e 521 525
e 521 526
e 521 527
e 521 528
e 521 529
e 521 530
e 521 522
e 521 523
e 521 524
e 521 525
e 525 528
e 521 526
e 526 527
e 521 527
e 526 527
e 521 528
e 525 528
e 521 529
e 521 530
e 530 798
e 234 531
e 423 531
e 531 532
e 531 533
e 531 534
e 531 535
e 531 537
e 531 538
e 531 539
e 531 541
e 531 542
e 531 543
e 531 545
e 531 546
e 531 547
e 531 549
e 531 550
e 531 551
e 531 532
e 532 536
e 532 540
e 532 694
e 532 695
e 531 533
e 533 536
e 533 540
e 531 534
e 534 536
e 534 540
e 531 535
e 535 536
e 535 540
e 535 704
e 535 753
e 535 761
e 234 536
e 423 536
e 532 536
e 533 536
e 534 536
e 535 536
e 536 537
e 536 538
e 536 539
e 531 537
e 536 537
e 537 540
e 531 538
e 536 538
e 538 540
e 531 539
e 536 539
e 539 540
e 234 540
e 423 540
e 532 540
e 533 540
e 534 540
e 535 540
e 537 540
e 538 540
e 539 540
e 540 541
e 540 542
e 540 543
e 540 544
e 540 545
e 540 546
e 540 547
e 540 548
e 540 549
e 540 550
e 540 551
e 531 541
e 540 541
e 55 1172
e 55 1173
e 531 542
e 540 542
e 531 543
e 540 543
e 540 544
e 531 545
e 540 545
e 531 546
e 540 546
e 531 547
e 540 547
e 540 548
e 531 549
e 540 549
e 531 550
e 540 550
e 531 551
e 540 551
e 56 1270
e 552 553
e 552 553
e 553 554
e 553 554
e 555 556
e 461 556
e 506 556
e 555 556
e 556 557
e 556 799
e 556 557
e 506 558
e 559 560
e 559 561
e 559 562
e 559 560
e 559 561
e 371 562
e 559 562
e 562 563
e 562 994
e 562 995
e 562 996
e 562 999
e 562 1000
e 562 563
e 564 565
e 564 565
e 566 567
e 566 567
e 568 569
e 568 569
e 570 571
e 570 572
e 570 571
e 570 572
e 573 574
e 573 575
e 573 574
e 574 615
e 573 575
e 576 577
e 576 578
e 576 577
e 576 578
e 579 580
e 579 580
e 581 582
e 581 583
e 581 592
e 581 593
e 581 594
e 581 595
e 581 596
e 581 597
e 581 604
e 581 605
e 581 609
e 59 1330
e 581 582
e 581 583
e 584 585
e 584 585
e 428 586
e 587 588
e 587 588
e 428 589
e 428 590
e 428 591
e 581 592
e 581 593
e 581 594
e 581 595
e 581 596
e 581 597
e 428 598
e 331 599
e 436 599
e 599 600
e 599 601
e 599 606
e 599 607
e 599 610
e 599 600
e 599 601
e 428 602
e 428 603
e 581 604
e 581 605
e 599 606
e 606 690
e 599 607
e 286 608
e 608 698
e 608 741
e 608 891
e 608 899
e 608 906
e 608 944
e 581 609
e 599 610
e 309 611
e 611 612
e 611 612
e 613 614
e 613 614
e 574 615
e 616 617
e 616 617
e 479 618
e 618 619
e 618 822
e 618 619
e 302 620
e 431 620
e 431 621
e 622 623
e 622 623
e 240 624
e 625 626
e 625 961
e 625 626
e 626 913
e 627 628
e 627 629
e 627 630
e 627 631
e 627 632
e 627 646
e 627 628
e 628 645
e 628 647
e 627 629
e 629 645
e 629 647
e 629 914
e 627 630
e 630 645
e 630 647
e 627 631
e 627 632
e 634 635
e 634 636
e 634 635
e 634 636
e 637 638
e 637 638
e 639 640
e 639 641
e 639 640
e 639 641
e 315 642
e 317 642
e 319 642
e 643 644
e 436 644
e 643 644
e 628 645
e 629 645
e 630 645
e 645 646
e 627 646
e 645 646
e 646 647
e 628 647
e 629 647
e 630 647
e 646 647
e 648 649
e 648 649
e 650 651
e 650 651
e 651 970
e 652 653
e 652 653
e 653 766
e 653 806
e 654 655
e 654 655
e 655 656
e 655 657
e 655 656
e 655 657
e 658 659
e 658 659
e 659 660
e 659 661
e 659 662
e 659 663
e 659 664
e 659 660
e 659 661
e 659 662
e 659 663
e 659 664
e 665 666
e 665 667
e 665 666
e 665 667
e 668 669
e 668 669
e 670 671
e 670 818
e 670 851
e 282 671
e 298 671
e 670 671
e 671 672
e 671 673
e 671 674
e 671 675
e 671 676
e 671 677
e 671 672
e 671 673
e 333 674
e 671 674
e 671 675
e 671 676
e 671 677
e 677 722
e 678 679
e 678 679
e 679 724
e 679 725
e 679 726
e 680 681
e 680 682
e 680 681
e 680 682
e 683 684
e 683 684
e 685 686
e 685 687
e 685 688
e 685 689
e 685 686
e 685 687
e 685 688
e 685 689
e 606 690
e 691 692
e 691 693
e 691 692
e 692 734
e 691 693
e 532 694
e 532 695
e 245 696
e 697 698
e 697 699
e 608 698
e 697 698
e 698 898
e 697 699
e 700 701
e 700 702
e 700 701
e 700 702
e 301 703
e 535 704
e 704 705
e 704 706
e 704 705
e 704 706
e 457 707
e 465 707
e 708 709
e 708 709
e 711 712
e 711 716
e 711 712
e 712 713
e 712 714
e 712 715
e 712 713
e 712 714
e 712 715
e 711 716
e 716 826
e 716 905
e 717 718
e 717 718
e 719 720
e 412 720
e 719 720
e 720 721
e 720 721
e 677 722
e 722 723
e 722 723
e 679 724
e 679 725
e 679 726
e 727 728
e 727 729
e 727 728
e 727 729
e 730 731
e 730 732
e 730 733
e 730 731
e 730 732
e 730 733
e 692 734
e 735 736
e 735 737
e 735 736
e 735 737
e 738 739
e 738 740
e 738 739
e 738 740
e 355 741
e 608 741
e 742 743
e 742 744
e 742 743
e 742 744
e 300 745
e 746 747
e 746 747
e 747 748
e 747 748
e 749 750
e 749 750
e 750 770
e 751 752
e 751 752
e 535 753
e 753 754
e 753 877
e 753 885
e 753 892
e 753 754
e 200 755
e 240 755
e 755 756
e 755 757
e 755 758
e 755 759
e 755 760
e 755 756
e 756 758
e 756 775
e 756 778
e 756 779
e 756 780
e 755 757
e 755 758
e 756 758
e 758 774
e 755 759
e 755 760
e 535 761
e 270 763
e 324 763
e 459 763
e 477 763
e 763 764
e 763 764
e 315 765
e 653 766
e 315 767
e 516 767
e 768 769
e 768 781
e 768 769
e 750 770
e 771 772
e 771 773
e 771 772
e 771 773
e 758 774
e 774 775
e 774 776
e 774 777
e 774 778
e 774 779
e 756 775
e 774 775
e 774 776
e 774 777
e 756 778
e 774 778
e 756 779
e 774 779
e 756 780
e 768 781
e 781 782
e 781 782
e 782 880
e 782 881
e 783 784
e 300 784
e 783 784
e 352 785
e 353 785
e 354 785
e 786 787
e 786 788
e 786 787
e 786 788
e 789 790
e 789 791
e 789 792
e 789 793
e 789 794
e 789 790
e 790 932
e 789 791
e 789 792
e 789 793
e 789 794
e 795 796
e 795 796
e 224 797
e 530 798
e 556 799
e 800 801
e 800 803
e 800 804
e 800 801
e 801 802
e 801 802
e 802 804
e 800 803
e 800 804
e 802 804
e 804 805
e 804 805
e 653 806
e 425 807
e 808 809
e 808 809
e 811 812
e 811 813
e 811 814
e 82 1110
e 82 1112
e 811 812
e 811 813
e 811 814
e 814 815
e 814 815
e 816 817
e 816 817
e 670 818
e 818 819
e 818 820
e 818 819
e 818 820
e 821 822
e 618 822
e 821 822
e 475 823
e 823 824
e 823 825
e 823 824
e 823 825
e 716 826
e 826 827
e 826 827
e 828 829
e 828 829
e 505 830
e 830 831
e 830 831
e 832 833
e 832 833
e 834 835
e 834 835
e 299 836
e 300 836
e 836 837
e 836 838
e 836 839
e 836 837
e 836 838
e 836 839
e 467 840
e 840 841
e 840 842
e 840 843
e 840 844
e 840 845
e 840 841
e 840 842
e 840 843
e 840 844
e 840 845
e 846 847
e 846 848
e 846 847
e 846 848
e 849 850
e 849 850
e 670 851
e 852 853
e 852 854
e 852 853
e 852 854
e 855 856
e 855 856
e 856 958
e 857 858
e 857 858
e 859 860
e 859 861
e 859 862
e 859 860
e 859 861
e 859 862
e 862 863
e 862 863
e 219 864
e 865 866
e 865 866
e 867 868
e 867 869
e 867 868
e 867 869
e 870 871
e 870 871
e 872 873
e 872 882
e 872 903
e 872 873
e 874 875
e 874 896
e 874 875
e 469 876
e 753 877
e 878 879
e 878 879
e 782 880
e 880 930
e 782 881
e 872 882
e 287 883
e 299 884
e 753 885
e 886 887
e 886 898
e 886 887
e 887 888
e 887 888
e 889 890
e 889 902
e 889 890
e 608 891
e 385 892
e 753 892
e 892 893
e 892 893
e 894 895
e 894 895
e 874 896
e 897 898
e 417 898
e 418 898
e 698 898
e 886 898
e 897 898
e 898 899
e 608 899
e 898 899
e 900 901
e 465 901
e 900 901
e 889 902
e 872 903
e 299 904
e 716 905
e 608 906
e 212 907
e 908 909
e 908 909
e 399 910
e 399 911
e 912 913
e 912 928
e 912 929
e 912 931
e 626 913
e 912 913
e 629 914
e 915 916
e 915 916
e 917 918
e 917 918
e 919 920
e 919 920
e 921 922
e 921 922
e 923 924
e 923 924
e 925 926
e 925 926
e 107 927
e 912 928
e 912 929
e 880 930
e 912 931
e 94 1269
e 790 932
e 933 934
e 933 934
e 934 935
e 934 935
e 936 937
e 309 937
e 936 937
e 937 938
e 937 938
e 331 939
e 939 940
e 939 940
e 941 942
e 941 943
e 941 942
e 941 943
e 608 944
e 945 946
e 945 947
e 945 946
e 945 947
e 948 949
e 948 949
e 950 951
e 950 952
e 950 951
e 950 952
e 953 954
e 953 954
e 954 955
e 954 955
e 956 957
e 956 957
e 469 958
e 856 958
e 959 960
e 959 960
e 625 961
e 478 962
e 479 962
e 478 963
e 478 964
e 478 965
e 465 966
e 504 966
e 966 968
e 504 967
e 966 968
e 969 970
e 969 971
e 170 970
e 651 970
e 969 970
e 970 971
e 170 971
e 969 971
e 970 971
e 972 973
e 972 974
e 972 975
e 972 976
e 972 973
e 972 974
e 972 975
e 972 976
e 977 978
e 977 978
e 979 980
e 979 981
e 979 982
e 979 983
e 979 980
e 979 981
e 979 982
e 979 983
e 983 984
e 983 984
e 985 986
e 985 986
e 986 987
e 986 987
e 315 988
e 299 989
e 294 990
e 322 991
e 437 991
e 991 992
e 991 992
e 322 993
e 562 994
e 562 995
e 562 996
e 997 998
e 997 998
e 562 999
e 562 1000
e 562 1001
e 292 1009
e 292 1010
e 292 1011
e 504 1019
e 505 1019
e 600 1021
e 703 1024
e 239 1025
e 440 1025
e 670 1025
e 984 1025
e 978 1027
e 277 1034
e 465 1050
e 504 1050
e 505 1050
e 505 1051
e 107 1313
e 912 1068
e 912 1069
e 912 1070
e 535 1072
e 683 1078
e 986 1081
e 986 1082
e 856 1083
e 856 1084
e 856 1085
e 365 1095
e 365 1096
e 921 1097
e 921 1098
e 921 1099
e 921 1100
e 921 1101
e 921 1102
e 921 1104
e 921 1105
e 294 1110
e 294 1112
e 855 1116
e 240 1126
e 526 1129
e 528 1129
e 524 1130
e 527 1130
e 465 1131
e 505 1131
e 432 1136
e 432 1137
e 319 1146
e 912 1150
e 912 1151
e 340 1152
e 856 1153
e 856 1154
e 855 1158
e 287 1159
e 672 1159
e 740 1159
e 895 1159
e 287 1160
e 672 1161
e 240 1162
e 974 1166
e 978 1167
e 160 1175
e 854 1179
e 881 1189
e 184 1195
e 971 1195
e 323 1206
e 170 1217
e 184 1217
e 170 1218
e 184 1218
e 651 1218
e 970 1218
e 184 1219
e 352 1222
e 200 1223
e 380 1228
e 170 1232
e 812 1233
e 351 1234
e 352 1234
e 353 1234
e 352 1235
e 353 1235
e 921 1236
e 230 1239
e 608 1239
e 147 1244
e 702 1247
e 326 1251
e 487 1251
e 917 1251
e 137 1255
e 200 1255
e 729 1255
e 759 1255
e 363 1259
e 374 1259
e 375 1259
e 379 1259
e 505 1259
e 505 1260
e 170 1265
e 987 1269
e 219 1270
e 608 1270
e 618 1270
e 478 1283
e 230 1294
e 608 1294
e 855 1302
e 618 1303
e 618 1304
e 618 1305
e 298 1308
e 984 1308
e 788 1310
e 788 1311
e 788 1312
e 107 1313
e 465 1320
e 621 1320
e 212 1330
e 290 1330
e 608 1336
e 301 1337
e 656 1337
e 667 1345
e 756 1345
e 775 1345
e 137 1255
e 333 1406
e 333 1407
e 490 1409
e 240 1412
e 466 1413
e 466 1414
e 466 1416
e 510 1420
e 608 1423
e 195 1424
e 608 1429
e 504 1432
e 182 1445
e 942 1446
e 301 1448
e 921 1449
e 465 1450
e 428 1451
e 170 1453
e 147 1244
e 160 1175
e 170 1217
e 170 1218
e 170 1232
e 170 1265
e 170 1453
e 182 1445
e 184 1195
e 184 1217
e 184 1218
e 184 1219
e 195 1424
e 200 1223
e 200 1255
e 212 1330
e 219 1270
e 230 1239
e 230 1294
e 239 1025
e 240 1126
e 240 1162
e 240 1412
e 277 1034
e 287 1159
e 287 1160
e 290 1330
e 292 1009
e 292 1010
e 292 1011
e 294 1110
e 294 1112
e 298 1308
e 301 1337
e 301 1448
e 319 1146
e 323 1206
e 326 1251
e 333 1406
e 333 1407
e 340 1152
e 351 1234
e 352 1222
e 352 1234
e 352 1235
e 353 1234
e 353 1235
e 363 1259
e 365 1095
e 365 1096
e 374 1259
e 375 1259
e 379 1259
e 380 1228
e 428 1451
e 432 1136
e 432 1137
e 440 1025
e 465 1050
e 465 1131
e 465 1320
e 465 1450
e 466 1413
e 466 1414
e 466 1416
e 478 1283
e 487 1251
e 490 1409
e 504 1019
e 504 1050
e 504 1432
e 505 1019
e 505 1050
e 505 1051
e 505 1131
e 505 1259
e 505 1260
e 510 1420
e 524 1130
e 526 1129
e 527 1130
e 528 1129
e 535 1072
e 562 1001
e 600 1021
e 608 1239
e 608 1270
e 608 1294
e 608 1336
e 608 1423
e 608 1429
e 618 1270
e 618 1303
e 618 1304
e 618 1305
e 621 1320
e 651 1218
e 656 1337
e 667 1345
e 670 1025
e 672 1159
e 672 1161
e 683 1078
e 702 1247
e 703 1024
e 729 1255
e 740 1159
e 756 1345
e 759 1255
e 775 1345
e 788 1310
e 788 1311
e 788 1312
e 812 1233
e 854 1179
e 855 1116
e 855 1158
e 855 1302
e 856 1083
e 856 1084
e 856 1085
e 856 1153
e 856 1154
e 881 1189
e 895 1159
e 912 1068
e 912 1069
e 912 1070
e 912 1150
e 912 1151
e 917 1251
e 921 1097
e 921 1098
e 921 1099
e 921 1100
e 921 1101
e 921 1102
e 921 1104
e 921 1105
e 921 1236
e 921 1449
e 942 1446
e 970 1218
e 971 1195
e 974 1166
e 978 1027
e 978 1167
e 984 1025
e 984 1308
e 986 1081
e 986 1082
e 987 1269
e 1002 1003
e 1002 1004
e 1002 1005
e 1002 1003
e 1002 1004
e 1002 1005
e 1006 1007
e 1006 1008
e 1006 1007
e 1006 1008
e 1008 1159
e 1008 1408
e 1012 1013
e 1012 1013
e 1013 1014
e 1013 1014
e 1015 1016
e 1015 1016
e 1016 1017
e 1016 1018
e 1016 1017
e 1016 1018
e 1020 1042
e 1020 1155
e 1021 1022
e 1021 1023
e 1021 1022
e 1021 1023
e 1025 1026
e 1025 1026
e 1028 1029
e 1028 1029
e 1030 1031
e 1030 1031
e 1032 1033
e 1032 1248
e 1032 1033
e 1033 1086
e 1034 1035
e 1034 1036
e 1034 1037
e 1034 1035
e 1034 1036
e 1034 1037
e 1038 1039
e 1038 1039
e 1040 1041
e 1040 1041
e 1020 1042
e 1042 1362
e 1043 1044
e 1043 1045
e 1043 1044
e 1043 1045
e 1046 1047
e 1046 1047
e 1047 1091
e 1047 1092
e 1048 1049
e 1048 1049
e 1052 1053
e 1052 1053
e 1054 1055
e 1054 1055
e 1055 1056
e 1055 1056
e 1057 1058
e 1057 1059
e 1057 1060
e 1057 1061
e 1057 1062
e 1057 1058
e 1057 1059
e 1057 1060
e 1057 1061
e 1061 1063
e 1057 1062
e 1062 1063
e 1061 1063
e 1062 1063
e 1064 1065
e 1064 1065
e 1066 1067
e 1066 1067
e 1073 1074
e 1073 1074
e 1075 1076
e 1075 1076
e 1076 1077
e 1076 1077
e 1079 1080
e 1079 1080
e 1033 1086
e 1087 1088
e 1087 1089
e 1087 1090
e 1087 1088
e 1088 1089
e 1087 1089
e 1088 1089
e 1087 1090
e 1047 1091
e 1047 1092
e 1093 1094
e 1093 1094
e 1095 1096
e 1095 1096
e 1097 1103
e 1098 1103
e 1099 1103
e 1100 1103
e 1101 1103
e 1102 1103
e 1097 1103
e 1098 1103
e 1099 1103
e 1100 1103
e 1101 1103
e 1102 1103
e 1106 1107
e 1106 1108
e 1106 1109
e 1106 1110
e 1106 1107
e 1107 1110
e 1107 1111
e 1107 1112
e 1107 1113
e 1106 1108
e 1106 1109
e 1106 1110
e 1107 1110
e 1107 1111
e 1107 1112
e 1107 1113
e 1114 1115
e 1114 1115
e 1116 1117
e 1116 1117
e 1118 1119
e 1118 1120
e 1118 1119
e 1119 1134
e 1119 1135
e 1119 1138
e 1119 1139
e 1119 1140
e 1118 1120
e 1121 1122
e 1121 1123
e 1121 1122
e 1121 1123
e 1124 1125
e 1124 1125
e 1127 1128
e 1127 1128
e 1132 1133
e 1132 1133
e 1119 1134
e 1119 1135
e 1119 1138
e 1119 1139
e 1119 1140
e 1141 1142
e 1141 1143
e 1141 1142
e 1141 1143
e 1144 1145
e 1144 1145
e 1147 1148
e 1147 1148
e 1148 1149
e 1148 1165
e 1148 1149
e 1020 1155
e 1156 1157
e 1156 1157
e 1008 1159
e 1161 1167
e 1163 1164
e 1163 1164
e 1148 1165
e 1161 1167
e 1168 1169
e 1168 1295
e 1168 1169
e 1170 1171
e 1170 1171
e 1171 1362
e 1173 1174
e 1173 1174
e 1175 1176
e 1175 1180
e 1175 1181
e 1175 1176
e 1177 1178
e 1177 1178
e 1178 1189
e 1179 1301
e 1175 1180
e 1175 1181
e 1182 1183
e 1182 1184
e 1182 1185
e 1182 1186
e 1182 1187
e 1182 1188
e 1182 1183
e 1182 1184
e 1182 1185
e 1182 1186
e 1182 1187
e 1182 1188
e 1178 1189
e 1189 1190
e 1189 1191
e 1189 1190
e 1189 1191
e 1192 1193
e 1192 1193
e 1194 1195
e 1194 1195
e 1195 1203
e 1195 1204
e 1195 1205
e 1195 1218
e 1195 1270
e 1195 1298
e 1196 1197
e 1196 1249
e 1196 1197
e 1198 1199
e 1198 1199
e 1199 1200
e 1199 1200
e 1201 1202
e 1201 1287
e 1201 1202
e 1195 1203
e 1195 1204
e 1195 1205
e 1206 1207
e 1206 1208
e 1206 1209
e 1206 1207
e 1206 1208
e 1206 1209
e 1210 1211
e 1210 1211
e 1211 1212
e 1211 1212
e 1213 1214
e 1213 1214
e 1215 1216
e 1215 1216
e 1195 1218
e 1218 1224
e 1218 1270
e 1218 1288
e 1220 1221
e 1220 1221
e 1218 1224
e 1224 1225
e 1224 1225
e 1226 1227
e 1226 1227
e 1228 1229
e 1228 1229
e 1230 1231
e 1230 1231
e 1236 1237
e 1236 1449
e 1236 1237
e 1238 1239
e 1238 1239
e 1239 1294
e 1240 1241
e 1240 1241
e 1242 1243
e 1242 1243
e 1244 1245
e 1244 1246
e 1244 1245
e 1244 1246
e 1032 1248
e 1196 1249
e 1250 1251
e 1250 1251
e 1251 1252
e 1251 1252
e 1253 1254
e 1253 1254
e 1256 1257
e 1256 1258
e 1256 1257
e 1256 1258
e 1261 1262
e 1261 1262
e 1263 1264
e 1263 1264
e 1264 1268
e 1266 1267
e 1266 1267
e 1264 1268
e 1269 1270
e 1269 1271
e 1195 1270
e 1218 1270
e 1269 1270
e 1270 1287
e 1270 1291
e 1270 1293
e 1270 1294
e 1270 1295
e 1270 1298
e 1270 1314
e 1270 1315
e 1270 1322
e 1270 1323
e 1270 1330
e 1270 1334
e 1270 1335
e 1270 1339
e 1270 1342
e 1270 1343
e 1270 1344
e 1270 1352
e 1270 1353
e 1270 1357
e 1270 1405
e 1269 1271
e 1272 1273
e 1272 1273
e 1273 1274
e 1273 1274
e 1275 1276
e 1275 1277
e 1275 1276
e 1276 1277
e 1275 1277
e 1276 1277
e 1278 1279
e 1278 1279
e 1280 1281
e 1280 1307
e 1280 1308
e 1280 1428
e 1280 1454
e 1280 1281
e 1282 1283
e 1282 1283
e 1283 1296
e 1283 1297
e 1284 1285
e 1284 1285
e 1286 1287
e 1286 1288
e 1201 1287
e 1270 1287
e 1286 1287
e 1287 1298
e 1218 1288
e 1286 1288
e 1289 1290
e 1289 1290
e 1290 1331
e 1290 1417
e 1270 1291
e 1291 1292
e 1291 1292
e 1270 1293
e 1239 1294
e 1270 1294
e 1168 1295
e 1270 1295
e 1283 1296
e 1283 1297
e 1195 1298
e 1270 1298
e 1287 1298
e 1299 1300
e 1299 1300
e 1179 1301
e 1306 1307
e 1280 1307
e 1306 1307
e 1280 1308
e 1308 1309
e 1308 1309
e 1270 1314
e 1270 1315
e 1316 1317
e 1316 1317
e 1318 1319
e 1318 1319
e 1320 1321
e 1320 1321
e 1270 1322
e 1270 1323
e 1323 1324
e 1323 1325
e 1323 1326
e 1323 1324
e 1323 1325
e 1323 1326
e 1327 1328
e 1327 1329
e 1327 1328
e 1327 1329
e 1270 1330
e 1290 1331
e 1332 1333
e 1332 1333
e 1270 1334
e 1270 1335
e 1337 1338
e 1337 1338
e 1270 1339
e 1339 1340
e 1339 1341
e 1339 1340
e 1339 1341
e 1270 1342
e 1270 1343
e 1270 1344
e 1345 1346
e 1345 1347
e 1345 1346
e 1345 1347
e 1348 1349
e 1348 1349
e 1350 1351
e 1350 1351
e 1270 1352
e 1352 1356
e 1270 1353
e 1354 1355
e 1354 1356
e 1354 1355
e 1352 1356
e 1354 1356
e 1270 1357
e 1358 1359
e 1358 1360
e 1358 1359
e 1359 1360
e 1358 1360
e 1359 1360
e 1360 1361
e 1360 1361
e 1042 1362
e 1171 1362
e 1362 1363
e 1362 1364
e 1362 1365
e 1362 1366
e 1362 1367
e 1362 1368
e 1362 1369
e 1362 1370
e 1362 1371
e 1362 1372
e 1362 1373
e 1362 1374
e 1362 1375
e 1362 1376
e 1362 1377
e 1362 1378
e 1362 1379
e 1362 1380
e 1362 1381
e 1362 1382
e 1362 1383
e 1362 1384
e 1362 1385
e 1362 1386
e 1362 1387
e 1362 1388
e 1362 1389
e 1362 1390
e 1362 1391
e 1362 1392
e 1362 1393
e 1362 1394
e 1362 1395
e 1362 1396
e 1362 1397
e 1362 1398
e 1362 1399
e 1362 1400
e 1362 1401
e 1362 1402
e 1362 1403
e 1362 1404
e 1362 1363
e 1362 1364
e 1362 1365
e 1362 1366
e 1362 1367
e 1362 1368
e 1362 1369
e 1362 1370
e 1362 1371
e 1362 1372
e 1362 1373
e 1362 1374
e 1362 1375
e 1362 1376
e 1362 1377
e 1362 1378
e 1362 1379
e 1362 1380
e 1362 1381
e 1362 1382
e 1362 1383
e 1362 1384
e 1362 1385
e 1362 1386
e 1362 1387
e 1362 1388
e 1362 1389
e 1362 1390
e 1362 1391
e 1362 1392
e 1362 1393
e 1362 1394
e 1362 1395
e 1362 1396
e 1362 1397
e 1362 1398
e 1362 1399
e 1362 1400
e 1362 1401
e 1362 1402
e 1362 1403
e 1362 1404
e 1270 1405
e 1008 1408
e 1409 1410
e 1409 1410
e 1411 1412
e 1411 1412
e 1414 1415
e 1414 1415
e 1290 1417
e 1418 1419
e 1418 1419
e 1421 1422
e 1421 1433
e 1421 1434
e 1421 1422
e 1422 1433
e 1422 1434
e 1422 1435
e 1425 1426
e 1425 1426
e 1427 1428
e 1280 1428
e 1427 1428
e 1430 1431
e 1430 1431
e 1421 1433
e 1422 1433
e 1421 1434
e 1422 1434
e 1422 1435
e 1436 1437
e 1436 1438
e 1436 1439
e 1436 1440
e 1436 1441
e 1436 1442
e 1436 1443
e 1436 1437
e 1437 1440
e 1437 1443
e 1437 1444
e 1436 1438
e 1436 1439
e 1436 1440
e 1437 1440
e 1440 1441
e 1440 1443
e 1436 1441
e 1440 1441
e 1441 1443
e 1436 1442
e 1436 1443
e 1437 1443
e 1440 1443
e 1441 1443
e 1437 1444
e 1446 1447
e 1446 1447
e 1236 1449
e 1450 1451
e 1450 1451
e 1451 1452
e 1451 1452
e 1280 1454
e 1454 1455
e 1454 1455
