CliquerOutput/bio-grid-mouse.out
size=7, weight=7:   351 352 353 354 355 356 357
